p cnf 8 38 
c Factors encoded in variables 1-6 and 7-8
c Target number: 86
c Factors: 43 x 2
5 4 3 1 0
4 3 2 7 0
-5 -4 7 0
4 7 0
5 2 1 0
2 -7 0
5 -4 -3 1 0
-1 -7 0
4 -3 -2 7 0
-3 7 0
6 7 0
6 5 -4 -2 0
-5 -4 -3 1 7 0
-6 -4 -3 2 1 0
2 3 4 5 6 0
6 4 3 0
-6 -5 -4 2 1 0
6 5 4 0
-5 -2 7 0
-6 -3 1 0
-6 5 1 0
4 1 7 0
-6 -5 4 3 -7 0
8 0
-6 -5 -4 -3 -2 -7 0
-6 5 2 -7 0
6 5 -4 -3 -2 0
-6 -7 0
2 7 0
-3 -2 -7 0
-6 -5 -7 0
4 -3 2 0
5 4 3 2 -7 0
-4 1 0
-5 4 3 1 7 0
1 7 0
4 2 1 7 0
-6 5 -7 0
